p edge 41 319
e 1 5
e 1 7
e 1 12
e 1 13
e 1 15
e 1 18
e 1 22
e 1 25
e 1 27
e 1 31
e 1 35
e 1 36
e 1 37
e 1 40
e 1 41
e 2 3
e 2 13
e 2 16
e 2 17
e 2 18
e 2 20
e 2 21
e 2 24
e 2 28
e 2 31
e 2 32
e 2 35
e 2 36
e 2 41
e 3 5
e 3 8
e 3 10
e 3 13
e 3 17
e 3 22
e 3 32
e 3 34
e 3 36
e 4 5
e 4 8
e 4 9
e 4 12
e 4 14
e 4 15
e 4 18
e 4 20
e 4 21
e 4 31
e 4 32
e 4 33
e 4 35
e 4 36
e 4 41
e 5 7
e 5 8
e 5 14
e 5 16
e 5 17
e 5 18
e 5 21
e 5 22
e 5 24
e 5 26
e 5 29
e 5 34
e 5 35
e 5 37
e 5 38
e 5 39
e 6 8
e 6 12
e 6 13
e 6 19
e 6 20
e 6 21
e 6 23
e 6 24
e 6 28
e 6 29
e 6 32
e 6 33
e 6 34
e 6 36
e 6 37
e 6 38
e 6 40
e 7 8
e 7 11
e 7 14
e 7 17
e 7 19
e 7 22
e 7 23
e 7 28
e 7 29
e 7 30
e 7 31
e 7 32
e 7 33
e 7 40
e 8 9
e 8 11
e 8 15
e 8 16
e 8 17
e 8 21
e 8 28
e 8 31
e 8 33
e 8 35
e 8 37
e 8 38
e 9 10
e 9 12
e 9 13
e 9 15
e 9 16
e 9 22
e 9 24
e 9 32
e 9 33
e 9 41
e 10 12
e 10 16
e 10 20
e 10 21
e 10 22
e 10 26
e 10 32
e 10 35
e 10 36
e 10 37
e 10 41
e 11 13
e 11 14
e 11 15
e 11 19
e 11 22
e 11 23
e 11 24
e 11 25
e 11 26
e 11 27
e 11 28
e 11 35
e 11 37
e 12 14
e 12 19
e 12 22
e 12 23
e 12 24
e 12 25
e 12 30
e 12 31
e 12 33
e 12 34
e 12 38
e 12 40
e 13 18
e 13 20
e 13 27
e 13 30
e 13 31
e 13 32
e 13 33
e 13 37
e 13 39
e 13 40
e 14 17
e 14 20
e 14 21
e 14 22
e 14 28
e 14 30
e 14 32
e 14 33
e 14 40
e 15 16
e 15 18
e 15 19
e 15 20
e 15 22
e 15 23
e 15 24
e 15 26
e 15 31
e 15 32
e 15 36
e 15 39
e 15 40
e 15 41
e 16 17
e 16 18
e 16 23
e 16 25
e 16 26
e 16 29
e 16 34
e 16 35
e 16 39
e 17 19
e 17 20
e 17 27
e 17 28
e 17 31
e 17 33
e 17 35
e 17 38
e 17 39
e 17 41
e 18 21
e 18 22
e 18 23
e 18 26
e 18 27
e 18 31
e 18 35
e 18 36
e 18 38
e 19 23
e 19 27
e 19 32
e 19 33
e 19 34
e 19 36
e 19 40
e 19 41
e 20 23
e 20 25
e 20 28
e 20 32
e 20 35
e 20 37
e 20 38
e 20 40
e 20 41
e 21 23
e 21 25
e 21 26
e 21 28
e 21 29
e 21 32
e 21 35
e 21 39
e 21 41
e 22 23
e 22 26
e 22 28
e 22 29
e 22 30
e 22 37
e 22 39
e 23 25
e 23 27
e 23 31
e 23 33
e 23 34
e 23 39
e 23 41
e 24 25
e 24 28
e 24 29
e 24 31
e 24 36
e 24 37
e 24 38
e 24 39
e 25 26
e 25 29
e 25 33
e 25 34
e 25 36
e 25 38
e 25 41
e 26 27
e 26 28
e 26 29
e 26 32
e 26 33
e 26 35
e 26 36
e 26 37
e 27 41
e 28 29
e 28 35
e 28 39
e 28 40
e 29 30
e 29 32
e 29 36
e 29 37
e 29 39
e 30 37
e 30 38
e 30 39
e 30 41
e 31 34
e 31 35
e 31 39
e 32 33
e 32 36
e 32 38
e 33 34
e 33 38
e 33 39
e 33 41
e 34 36
e 34 37
e 34 39
e 34 40
e 35 37
e 35 39
e 35 40
e 35 41
e 36 38
e 36 39
e 37 38
e 38 40
e 38 41
